(set-info :Origin "This instance was generated by: BanditFuzz-- an RL fuzzer for SMT solvers" )
(set-info :Author "Joe Scott, Fed Mora, Vijay Ganesh" )
(set-info :Contact "Joe Scott, joseph.scott@uwaterloo.ca")
(set-logic QF_BV)
(declare-const bool_0 Bool)
(declare-const bool_1 Bool)
(declare-const bool_2 Bool)
(declare-const bool_3 Bool)
(declare-const bool_4 Bool)
(declare-const bv_0 (_ BitVec 32))
(declare-const bv_1 (_ BitVec 32))
(declare-const bv_2 (_ BitVec 32))
(declare-const bv_3 (_ BitVec 32))
(declare-const bv_4 (_ BitVec 32))
(assert (bvugt (bvor (bvnor bv_1 #x59c0639d ) (bvsmod #x7a420a59  #x8b58d47c )) (bvurem (bvurem #x2614117f  #xd9e0e5be ) (bvnand bv_3 #x3e440361 ))))
(assert (=> (or (xor false true) (bvsgt #xe8bfef96  bv_0)) (bvule (bvashr #xed6c5216  bv_4) (bvadd #xa17d4116  bv_0))))
(assert (bvsgt (bvsrem (bvand #xbf7569f2  #xed4b0459 ) (bvor #x4b60e29a  bv_2)) (bvadd (bvsrem bv_1 #x44c00867 ) (bvsrem bv_4 #x4f9df210 ))))
(assert (or (xor (not false) (=> bool_1 bool_0)) (bvule (bvnor bv_3 bv_3) (bvsmod #x2e1c0770  #x4ab1e23c ))))
(assert (not (bvsge (bvsrem #xb453c71c  bv_3) (bvmul #x723aed9b  #x8effca2b ))))
(check-sat)
(exit)
